100 8
624 234
748 233
116 822
675 432
134 149
613 293
119 790
589 224
359 628
742 113
78 249
253 537
458 304
160 635
600 216
389 871
371 717
503 261
159 653
377 855
807 188
707 403
178 363
771 395
344 790
179 821
236 813
327 876
609 239
140 658
724 127
744 137
838 441
205 588
422 608
100 534
101 343
383 455
282 635
37 361
757 129
259 126
534 197
550 283
314 604
611 238
649 439
498 854
270 244
768 344
723 454
137 533
524 693
178 269
657 453
208 349
508 352
219 349
152 361
758 453
734 101
891 182
851 218
900 108
431 364
672 368
314 611
699 358
721 282
579 698
555 778
119 123
577 212
666 347
509 254
99 216
767 449
697 206
468 803
403 469
418 815
751 395
483 260
348 493
722 220
316 793
654 490
811 404
110 766
106 632
630 314
842 467
710 387
345 696
559 336
246 495
554 665
292 742
327 707
845 355
